40
2 1 2
5 4 5
8 1 9
8 2 7
12 0 4
12 11 7
13 2 9
13 7 2
13 10 1
14 11 8
15 2 8
15 10 7
16 6 8
16 10 2
16 11 9
16 12 3
17 6 7
18 1 2
18 2 2
18 3 9
18 14 10
18 17 10
19 1 9
20 3 7
21 0 7
21 2 8
22 7 2
23 1 1
23 7 4
23 10 1
24 21 5
24 22 3
25 0 10
25 24 10
27 7 4
27 22 8
28 9 1
28 27 3
29 2 5
30 15 8
30 17 1
31 3 1
31 14 2
31 17 3
31 18 10
31 23 9
31 29 6
32 15 3
32 16 6
32 20 8
33 10 10
33 20 1
33 25 8
34 11 5
34 14 10
34 20 2
34 33 3
35 0 10
35 21 10
36 10 6
36 31 3
37 11 7
37 31 1
38 9 10
38 17 7
38 20 3
39 7 4
39 14 6
39 26 9
39 31 4
